Comps = {frontend0, frontend1, frontend2, backend0, backend1, backend2, database0, database1};
mustComps = {frontend0, frontend1, frontend2};
Flavs = {tiny, medium, large};
Nodes = {n1, n2, n3};
CRes = {CPU, RAM, storage, bwIn, bwOut};
NRes = {ssl, fwall, encr, avail, latency};
Flav = [{medium, large}, {medium, large}, {medium, large}, {tiny, medium, large}, {tiny, medium, large}, {tiny, medium, large}, {large}, {large}];
Uses = [{backend2}, {backend0}, {backend2}, {backend2}, {backend0}, {backend2}, {}, {}, {}, {database0}, {database1}, {database1}, {database0}, {database1}, {database1}, {}, {}];
MAX_BOUND = 1000000;

worstBounds = [0, 0, 0, 0, 0, 0, 0, 0, 0, MAX_BOUND];
bestBounds = [MAX_BOUND - i | i in worstBounds];

comReq = array2d(CompFlavs, Res, [
  2, 271, 375, 726, 802, 0, 1, 0, 95, MAX_BOUND,
  2, 433, 420, 466, 879, 1, 1, 0, 95, MAX_BOUND,
  2, 276, 404, 224, 285, 0, 1, 1, 95, MAX_BOUND,
  8, 497, 208, 464, 708, 0, 0, 1, 97, MAX_BOUND,
  2, 299, 449, 342, 494, 1, 1, 1, 95, MAX_BOUND,
  2, 418, 305, 747, 754, 1, 1, 0, 97, MAX_BOUND,
  2, 312, 263, 881, 588, 1, 1, 0, 97, MAX_BOUND,
  4, 274, 407, 803, 698, 1, 1, 0, 96, MAX_BOUND,
  2, 373, 215, 355, 531, 0, 1, 1, 96, MAX_BOUND,
  4, 299, 402, 724, 229, 0, 0, 1, 95, MAX_BOUND,
  2, 349, 286, 329, 725, 0, 1, 1, 97, MAX_BOUND,
  2, 257, 278, 361, 560, 1, 1, 0, 97, MAX_BOUND,
  2, 463, 423, 702, 881, 1, 1, 0, 95, MAX_BOUND,
  4, 416, 217, 286, 396, 1, 0, 0, 97, MAX_BOUND,
  4, 206, 231, 445, 492, 1, 1, 1, 95, MAX_BOUND,
  2, 274, 286, 542, 304, 1, 0, 0, 97, MAX_BOUND,
  2, 200, 297, 511, 879, 1, 1, 1, 96, MAX_BOUND,
]);

nodeCap = array2d(Nodes0, Res, [bestBounds[r] | r in Res] ++ [
  16, 127275, 884599, 10213, 20781, 1, 1, 1, 98, 0,
  32, 24995, 212127, 14364, 12102, 0, 1, 1, 98, 0,
  16, 94073, 576763, 21962, 24034, 1, 1, 0, 98, 0,
]);

cost = array2d(Nodes0, Res, [
  0, 0, 0, 0, 0, 0, 0, 0, 0, 0, % no node
  19, 6, 19, 0, 0, 0, 0, 0, 0, 0,
  17, 7, 20, 0, 0, 0, 0, 0, 0, 0,
  14, 5, 15, 0, 0, 0, 0, 0, 0, 0,
]);

cons = array2d(Nodes0, Res, [
  0, 0, 0, 0, 0, 0, 0, 0, 0, 0, % no node
  9, 17, 24, 0, 0, 0, 0, 0, 0, 0,
  4, 8, 22, 0, 0, 0, 0, 0, 0, 0,
  38, 35, 39, 0, 0, 0, 0, 0, 0, 0,
]);

costWeight = 0;
consWeight = 1;

costBudget = 59582;
consBudget = 56403;

depReq = array3d(Comps, Comps, Res, [
  if c1 = frontend2 /\ c2 = backend0 /\ r = N(avail) then
    96
  elseif c1 = frontend2 /\ c2 = backend2 /\ r = N(avail) then
    97
  elseif c1 = frontend1 /\ c2 = backend2 /\ r = N(avail) then
    96
  elseif c1 = frontend0 /\ c2 = backend0 /\ r = N(avail) then
    96
  elseif c1 = frontend2 /\ c2 = backend1 /\ r = N(avail) then
    96
  elseif c1 = frontend0 /\ c2 = backend1 /\ r = N(avail) then
    96
  elseif c1 = frontend1 /\ c2 = backend1 /\ r = N(avail) then
    97
  elseif c1 = frontend1 /\ c2 = backend0 /\ r = N(avail) then
    97
  else
    worstBounds[r]
  endif | c1 in Comps, c2 in Comps, r in Res]);

linkCap = array3d(Nodes0, Nodes0, Res, [
  if ni = 0 \/ nj = 0 then
    bestBounds[r]
  elseif ni = nj /\ r = N(avail) then
    nodeCap[ni,r]
  elseif {ni, nj} = {n1, n3} /\ r = N(avail) then
    99
  elseif {ni, nj} = {n1, n2} /\ r = N(avail) then
    98
  elseif {ni, nj} = {n2, n3} /\ r = N(avail) then
    99
  else
    worstBounds[r]
  endif | ni in Nodes0, nj in Nodes0, r in Res]);

imp = array2d(Comps, Flavs, [
  1, 2, 8,
  5, 9, 10,
  5, 6, 10,
  7, 8, 10,
  5, 7, 9,
  2, 3, 9,
  1, 5, 8,
  2, 5, 7,
]);

